proyfinal/src/viki/013/andrea/andrea-localstore/experimentInOfficeAgust.take6/worker_1/83754f31-3bfd-4df0-a411-e67d35a93310.als.cnf.out
Reading from standard input... Use '--help' for help.
============================[ Problem Statistics ]=============================
|                                                                             |
|  Number of variables:         87638                                         |
|  Number of clauses:          161767                                         |
|  Parse time:                   0.04 s                                       |
|                                                                             |
============================[ Search Statistics ]==============================
| Conflicts |          ORIGINAL         |          LEARNT          | Progress |
|           |    Vars  Clauses Literals |    Limit  Clauses Lit/Cl |          |
===============================================================================
|       100 |   62152   104432   260898 |    38291      100     26 | 29.081 % |
|       250 |   62152   104432   260898 |    42120      250     78 | 29.081 % |
|       475 |   62152   104432   260898 |    46332      475    110 | 29.081 % |
|       812 |   62152   104432   260898 |    50966      812     86 | 29.081 % |
|      1318 |   62151   104388   260808 |    56062     1315    106 | 29.082 % |
|      2077 |   62151   104388   260808 |    61669     2074    109 | 29.082 % |
|      3216 |   62151   104388   260808 |    67836     3213    115 | 29.082 % |
===============================================================================
restarts              : 21
conflicts             : 4023           (6824 /sec)
decisions             : 12913          (0.00 % random) (21903 /sec)
propagations          : 6322840        (10724712 /sec)
conflict literals     : 404357         (52.37 % deleted)
Memory used           : 24.68 MB
CPU time              : 0.589558 s

UNSATISFIABLE
